c ren 1 -> 1
c ren 2 -> 2
c ren 3 -> 3
c ren 4 -> 4
c ren 5 -> 5
c ren 6 -> 6
c ren 7 -> 7
c ren 8 -> 8
c ren 9 -> 9
c ren 10 -> 10
c ren 11 -> 11
c ren 12 -> 12
c ren 13 -> 13
c ren 14 -> 14
c ren 15 -> 15
c ren 16 -> 16
c ren 17 -> 17
c ren 18 -> 18
c ren 19 -> 19
c ren 20 -> 20
c ren 21 -> 21
c ren 22 -> 22
c ren 23 -> 23
c ren 24 -> 24
c ren 25 -> 25
c ren 26 -> 26
c ren 27 -> 27
c ren 28 -> 28
c ren 29 -> 29
c ren 30 -> 30
c ren 31 -> 31
c ren 32 -> 32
c ren 33 -> 33
c ren 36 -> 34
c ren 39 -> 35
c ren 54 -> 36
c ren 68 -> 37
c ren 71 -> 38
c ren 90 -> 39
c ren 120 -> 40
c ren 126 -> 41
c ren 129 -> 42
c ren 137 -> 43
c ren 139 -> 44
c ren 155 -> 45
c ren 157 -> 46
c ren 162 -> 47
c ren 166 -> 48
c ren 168 -> 49
c ren 169 -> 50
c ren 170 -> 51
c ren 171 -> 52
c ren 172 -> 53
c ren 173 -> 54
c ren 174 -> 55
c ren 175 -> 56
c ren 176 -> 57
c ren 177 -> 58
c ren 178 -> 59
c ren 179 -> 60
c ren 180 -> 61
c ren 181 -> 62
c ren 182 -> 63
c ren 183 -> 64
c ren 184 -> 65
c ren 185 -> 66
c ren 186 -> 67
c ren 187 -> 68
c ren 188 -> 69
c ren 189 -> 70
c ren 190 -> 71
c ren 191 -> 72
c ren 192 -> 73
c ren 193 -> 74
c ren 194 -> 75
c ren 195 -> 76
c ren 196 -> 77
c ren 197 -> 78
c ren 198 -> 79
c ren 199 -> 80
c ren 200 -> 81
c ren 201 -> 82
c ren 202 -> 83
c ren 203 -> 84
c ren 204 -> 85
c ren 205 -> 86
c ren 206 -> 87
c ren 207 -> 88
c ren 208 -> 89
c ren 212 -> 90
c ren 231 -> 91
c ren 259 -> 92
c ren 274 -> 93
c ren 285 -> 94
c ren 288 -> 95
c ren 289 -> 96
c ren 290 -> 97
c ren 291 -> 98
c ren 292 -> 99
c ren 293 -> 100
c ren 294 -> 101
c ren 295 -> 102
c ren 296 -> 103
c ren 297 -> 104
c ren 298 -> 105
c ren 299 -> 106
c ren 300 -> 107
c ren 301 -> 108
c ren 302 -> 109
c ren 303 -> 110
c ren 304 -> 111
c ren 305 -> 112
c ren 306 -> 113
c ren 307 -> 114
c ren 308 -> 115
c ren 309 -> 116
c ren 310 -> 117
c ren 311 -> 118
p cnf 118 371
a 1 2 3 4 5 6 7 8 9 10 11 12 13 14 15 16 17 18 19 20 21 22 23 24 25 26 27 28 29 30 31 32 61 62 63 64 65 66 67 68 69 70 71 72 73 74 75 76 77 78 79 80 81 82 83 84 85 86 87 88 89 0
d 49 61 62 0
d 50 67 68 0
d 51 63 64 0
d 52 77 78 0
d 53 81 82 83 84 85 86 87 88 89 0
d 54 81 82 83 84 85 86 87 88 89 0
d 55 65 66 0
d 56 79 80 0
d 57 69 70 71 72 73 74 75 76 0
d 58 69 70 71 72 73 74 75 76 0
d 59 69 70 71 72 73 74 75 76 0
d 60 69 70 71 72 73 74 75 76 0
e 33 34 35 36 37 38 39 40 41 42 43 44 45 46 47 48 90 91 92 93 94 95 96 97 98 99 100 101 102 103 104 105 106 107 108 109 110 111 112 113 114 115 116 117 118 0
-11 -33 0
27 -33 0
11 -27 33 0
10 12 -25 -27 -36 0
-33 -48 0
-15 -16 28 32 33 34 35 39 40 41 42 47 0
7 -21 -22 -23 45 0
-10 -34 0
26 -34 0
10 -26 34 0
9 11 12 -26 -36 0
-39 -45 -46 -47 0
-12 28 33 34 35 36 0
-9 -35 0
25 -35 0
9 -25 35 0
-25 -34 -36 0
-35 -48 0
9 -26 -33 -36 0
24 32 37 38 41 42 -44 48 50 -53 -54 56 57 -90 91 92 -94 0
12 28 58 59 60 90 0
5 6 7 -24 45 0
10 -25 -27 -28 -36 0
9 10 -33 -36 0
-10 26 35 36 0
9 10 -27 -28 -36 0
9 10 12 -27 -36 0
24 32 37 38 41 42 -44 48 50 53 54 56 57 -90 91 92 -94 0
-35 -45 -46 -47 0
-8 24 -48 -94 0
10 11 12 -25 -36 0
-34 -48 0
9 -34 -36 0
7 -21 -22 -23 39 0
6 7 8 -21 45 0
-16 28 31 32 33 34 35 39 40 41 42 47 0
-25 -26 -33 -36 0
10 11 -25 -28 -36 0
9 10 11 12 -36 0
9 10 11 -28 -36 0
12 -28 36 -45 -46 -47 0
-21 -22 -37 39 0
-1 2 3 4 -17 18 19 20 -40 0
15 -16 28 31 -32 33 34 35 36 39 40 41 42 -43 -44 -45 -46 48 0
12 -28 -90 0
-5 -21 -38 0
-15 28 31 33 34 35 39 40 41 42 47 0
15 16 28 31 32 33 34 35 36 39 40 41 42 -43 -44 -45 -46 48 0
-10 26 36 -45 -46 -47 0
-12 -15 -16 32 33 34 35 39 40 41 42 47 0
-12 -15 31 33 34 35 39 40 41 42 47 0
-12 -16 31 32 33 34 35 39 40 41 42 47 0
12 -28 -48 0
10 -25 -33 -36 0
-1 2 -3 4 -17 18 -19 20 -40 0
28 33 34 35 39 40 44 47 0
15 16 36 -43 -44 -45 -46 -47 0
-1 -2 -4 19 20 -46 0
-15 -16 28 -31 -32 33 34 35 36 39 40 41 42 -43 -44 -45 -46 48 0
-34 36 -45 -46 -47 0
-12 28 36 -45 -46 -47 0
-22 -37 -51 -91 0
8 -21 -22 -23 45 0
8 -22 -51 -55 -91 0
6 7 -21 -23 39 0
-7 8 -23 24 37 38 -39 0
5 6 7 8 45 0
6 -37 -51 -91 0
6 -22 37 0
-15 31 41 42 -44 92 0
-6 22 38 91 0
-8 32 37 38 41 42 -44 48 50 53 54 56 57 -90 91 92 -94 0
-21 -38 39 0
5 -21 38 0
-21 -38 45 0
5 8 -22 -23 45 0
-7 -8 24 37 38 -45 0
7 8 -21 -22 45 0
6 -50 -51 -55 -91 0
-6 22 37 0
5 -38 45 0
-5 21 38 0
5 6 -37 39 0
5 6 7 -23 39 0
-7 23 37 38 -45 0
-6 -22 -37 0
8 -21 -22 -23 -24 39 0
5 -22 -37 45 0
6 8 -21 -23 45 0
5 21 -38 0
-8 24 37 38 50 91 0
-21 -22 -37 45 0
5 7 8 -22 -24 39 0
5 6 8 -23 -24 39 0
5 7 -22 -23 39 0
-8 24 -47 -54 91 -94 0
8 -24 -47 -53 91 -94 0
8 -24 -47 -54 91 -94 0
-8 24 -93 0
5 6 8 -23 45 0
6 8 -21 -23 -24 39 0
6 22 -37 0
24 37 38 50 -53 -54 -57 91 93 0
-7 -8 -23 -24 37 38 -39 0
-8 -16 37 38 41 42 -44 48 50 53 54 56 57 -90 91 92 -94 0
-22 -50 -51 -55 -91 0
24 37 38 50 53 54 -57 91 93 0
-12 -15 16 -31 32 33 34 35 36 39 40 41 42 -43 -44 -45 -46 48 0
2 -17 -18 46 0
1 -2 -3 4 17 -18 -19 20 -40 0
1 2 3 4 46 0
1 2 -19 -20 46 0
3 -17 -18 -19 46 0
-2 17 18 -46 0
1 2 3 -20 46 0
1 2 -3 4 17 18 -19 20 -40 0
1 2 -18 46 0
1 2 3 -19 40 0
1 -17 40 0
1 3 4 -18 -20 40 0
1 4 -18 -19 -20 40 0
2 -17 -18 40 0
1 2 -3 -4 17 18 -19 -20 -40 0
-3 17 18 19 -46 0
2 4 -17 -19 46 0
1 2 4 -19 -20 40 0
1 4 -18 -19 46 0
1 2 4 -19 46 0
-2 -3 17 19 -46 0
1 2 3 4 17 18 19 20 -40 0
1 2 3 -4 17 18 19 -20 -40 0
1 3 4 -18 46 0
-1 17 -46 0
2 -17 -19 -20 46 0
1 3 -18 -19 46 0
1 -17 46 0
1 -2 3 -4 17 -18 19 -20 -40 0
2 3 -17 -20 46 0
2 3 4 -17 -20 40 0
1 3 -18 -20 46 0
-2 -3 -4 17 20 -46 0
2 3 -17 -19 46 0
1 -2 3 4 17 -18 19 20 -40 0
1 2 3 4 -20 40 0
1 2 3 -19 46 0
2 4 -17 -19 -20 40 0
1 -2 -3 -4 17 -18 -19 -20 -40 0
1 2 -18 40 0
-4 17 18 19 20 -46 0
2 3 -17 -19 40 0
4 -17 -18 -19 46 0
2 3 4 -17 46 0
4 -17 -18 -19 -20 40 0
-17 -18 -19 -20 46 0
1 -18 -19 -20 46 0
-3 -4 17 18 20 -46 0
3 4 -17 -18 -20 40 0
3 -17 -18 -20 46 0
3 4 -17 -18 46 0
-1 -2 18 -46 0
3 -17 -18 -19 40 0
-1 2 -3 -4 -17 18 -19 -20 -40 0
-40 -46 -47 0
-12 15 -16 31 -32 33 34 35 36 39 40 41 42 -43 -44 -45 -46 48 0
-1 -4 18 19 20 -46 0
-15 16 28 -31 32 33 34 35 36 39 40 41 42 -43 -44 -45 -46 48 0
-31 -43 -52 -56 -92 0
15 -32 -43 -52 -92 0
57 -93 0
-1 -2 -3 19 -46 0
15 -31 -43 -48 0
-14 -41 0
30 -41 0
-14 30 -43 0
-13 -42 0
29 -42 0
-13 29 -44 0
-12 -28 58 59 60 90 0
-1 -2 3 4 -17 -18 19 20 -40 0
-1 -3 -4 18 20 -46 0
14 43 0
-30 43 0
13 44 0
-29 44 0
-42 -52 -92 0
16 -31 36 -43 -44 -45 -46 -47 0
15 -43 -52 -56 -92 0
5 -22 -23 -24 45 0
42 43 -44 92 0
-31 -32 -43 -52 -92 0
-48 -50 -94 0
15 16 -43 -52 -92 0
-1 -2 -3 -4 -17 -18 -19 -20 -40 0
-16 24 37 38 41 42 -44 48 50 53 54 56 57 -90 91 92 -94 0
-12 15 16 31 32 33 34 35 36 39 40 41 42 -43 -44 -45 -46 48 0
-39 -48 0
7 8 -21 -22 -24 39 0
5 -22 -37 39 0
-5 21 -45 0
-2 -4 17 19 20 -46 0
1 3 -18 -19 40 0
-1 -3 18 19 -46 0
-40 -48 0
-16 24 37 38 41 42 -44 48 50 -53 -54 56 57 -90 91 92 -94 0
36 -42 -45 -46 -47 0
-33 36 -45 -46 -47 0
44 -48 0
-1 -2 -3 4 -17 -18 -19 20 -40 0
40 45 47 0
36 -41 -44 -45 -46 -47 0
46 47 0
-1 2 3 -4 -17 18 19 -20 -40 0
24 37 38 47 50 -53 -54 -90 -92 -94 0
5 7 -22 -23 45 0
-8 32 37 38 41 42 -44 48 50 -53 -54 56 57 -90 91 92 -94 0
-41 -52 -92 0
45 -48 0
46 -48 0
-36 39 40 47 0
-12 -15 -16 -31 -32 33 34 35 36 39 40 41 42 -43 -44 -45 -46 48 0
-12 28 -90 0
-58 -90 0
-59 -90 0
-60 -90 0
-12 33 34 35 39 40 44 47 0
-48 -57 -94 0
-48 90 -94 0
6 7 -21 -23 45 0
6 7 8 -21 -24 39 0
6 8 -51 -55 -91 0
6 -21 -37 45 0
6 -21 -37 39 0
-21 -22 -23 -24 45 0
7 8 23 24 37 38 -39 0
5 -38 39 0
5 6 -37 45 0
37 38 55 91 0
5 7 -22 -24 45 0
-8 23 24 37 38 -45 0
5 6 7 8 -24 39 0
5 6 7 -23 45 0
-12 33 34 35 39 40 42 43 47 0
51 91 0
-6 22 38 -45 0
-22 -24 -51 -55 -91 0
-38 -51 -91 0
-37 -48 -94 0
-47 -50 -53 91 -94 0
-8 37 38 50 53 54 -57 91 93 0
-47 -50 -54 91 -94 0
-37 -93 0
-38 -93 0
-31 -32 36 -43 -44 -45 -46 -47 0
-47 -53 91 92 93 -94 0
-48 -53 54 -94 0
-48 53 -54 -94 0
-15 31 41 42 -43 -48 0
-47 -54 90 91 93 -94 0
14 -30 41 0
13 -29 42 0
28 33 34 35 39 40 42 43 47 0
-37 -47 -53 91 -94 0
-1 -2 3 -4 -17 -18 19 -20 -40 0
-36 -48 0
52 92 0
15 -31 36 -43 -44 -45 -46 -47 0
16 -31 -43 -52 -92 0
-16 32 41 42 -44 56 92 0
44 -52 -92 0
-48 -92 -94 0
15 -32 36 -43 -44 -45 -46 -47 0
-47 -53 90 91 93 -94 0
53 -54 -93 0
-47 -53 -57 91 93 -94 0
5 7 8 -22 45 0
47 53 54 -94 0
-47 -54 -57 91 93 -94 0
-50 -93 0
-47 -54 91 92 93 -94 0
-38 -47 -53 91 -94 0
8 -24 -93 0
-47 53 -54 -94 0
5 8 -22 -23 -24 39 0
-8 -16 37 38 41 42 -44 48 50 -53 -54 56 57 -90 91 92 -94 0
-8 37 38 50 -53 -54 -57 91 93 0
47 -53 -54 -91 -94 0
-47 -53 54 -94 0
-8 24 -47 -53 91 -94 0
-91 -93 0
-38 -48 -94 0
-48 -91 -94 0
-48 -56 -94 0
-53 54 -93 0
8 -24 -48 -94 0
-38 -47 -54 91 -94 0
-8 37 38 47 50 -53 -54 57 -90 -92 -94 0
-1 -2 -3 -4 20 -46 0
-3 -19 -20 -61 -62 -87 -88 -89 94 95 96 97 98 99 100 101 102 103 104 105 106 107 108 109 110 111 112 113 114 115 116 117 118 0
11 12 -25 -26 -36 0
7 -21 -22 -24 45 0
3 19 20 61 62 87 88 89 94 95 96 97 98 99 100 101 102 103 104 105 106 107 108 109 110 111 112 113 114 115 116 117 118 0
3 -19 20 61 -62 87 88 -89 94 95 96 97 98 99 100 101 102 103 104 105 106 107 108 109 110 111 112 113 114 115 116 117 118 0
-5 -63 -95 0
5 63 -95 0
-21 -64 -96 0
21 64 -96 0
-7 -65 -97 0
7 65 -97 0
-23 -66 -98 0
23 66 -98 0
-7 -67 -99 0
-25 -26 -27 -28 -36 0
7 67 -99 0
-23 -68 -100 0
9 12 -26 -27 -36 0
7 -8 23 -24 37 38 -39 0
23 68 -100 0
-11 -69 -101 0
11 69 -101 0
-27 -70 -102 0
27 70 -102 0
-10 -71 -103 0
10 71 -103 0
-26 -72 -104 0
-11 27 34 35 36 0
26 72 -104 0
-9 -73 -105 0
9 73 -105 0
-25 -74 -106 0
-11 27 36 -45 -46 -47 0
25 74 -106 0
-12 -75 -107 0
12 75 -107 0
-28 -76 -108 0
28 76 -108 0
-13 -77 -109 0
-9 25 36 0
13 77 -109 0
-29 -78 -110 0
12 -25 -26 -27 -36 0
29 78 -110 0
-15 -79 -111 0
11 -25 -26 -28 -36 0
15 79 -111 0
-31 -80 -112 0
31 80 -112 0
-49 -81 -113 0
6 7 -21 -24 45 0
49 81 -113 0
-2 -82 -114 0
9 -26 -27 -28 -36 0
2 82 -114 0
-18 -83 -115 0
6 -21 -23 -24 45 0
18 83 -115 0
-1 -84 -116 0
1 84 -116 0
-17 -85 -117 0
17 85 -117 0
-4 -86 -118 0
4 86 -118 0
3 19 -20 61 62 -87 88 89 94 95 96 97 98 99 100 101 102 103 104 105 106 107 108 109 110 111 112 113 114 115 116 117 118 0
-3 19 -20 -61 62 -87 -88 89 94 95 96 97 98 99 100 101 102 103 104 105 106 107 108 109 110 111 112 113 114 115 116 117 118 0
-3 -19 20 -61 -62 87 -88 -89 94 95 96 97 98 99 100 101 102 103 104 105 106 107 108 109 110 111 112 113 114 115 116 117 118 0
3 -19 -20 61 -62 -87 88 -89 94 95 96 97 98 99 100 101 102 103 104 105 106 107 108 109 110 111 112 113 114 115 116 117 118 0
5 6 -23 -24 45 0
6 -24 -51 -55 -91 0
-3 19 20 -61 62 87 -88 89 94 95 96 97 98 99 100 101 102 103 104 105 106 107 108 109 110 111 112 113 114 115 116 117 118 0
47 -93 -94 0
9 11 -26 -28 -36 0
-37 -47 -54 91 -94 0
